Version identifier: 22.1.1.0 | 2022-11-28 | 9160aff4d
CPXPARAM_Read_DataCheck                          1
CPXPARAM_MIP_Cuts_Covers                         1
CPXPARAM_MIP_Strategy_NodeSelect                 2
CPXPARAM_MIP_Cuts_FlowCovers                     1
CPXPARAM_MIP_Cuts_MIRCut                         1
CPXPARAM_MIP_Strategy_HeuristicFreq              5
CPXPARAM_TimeLimit                               633
Tried aggregator 1 time.
MIP Presolve eliminated 191 rows and 1412 columns.
MIP Presolve modified 55341 coefficients.
Reduced MIP has 10303 rows, 14434 columns, and 76826 nonzeros.
Reduced MIP has 14335 binaries, 0 generals, 0 SOSs, and 0 indicators.
Presolve time = 0.06 sec. (82.67 ticks)
Probing time = 0.05 sec. (9.66 ticks)
Tried aggregator 1 time.
Detecting symmetries...
Reduced MIP has 10303 rows, 14434 columns, and 76826 nonzeros.
Reduced MIP has 14335 binaries, 0 generals, 0 SOSs, and 0 indicators.
Presolve time = 0.03 sec. (42.95 ticks)
Probing time = 0.04 sec. (9.52 ticks)
Clique table members: 11836.
MIP emphasis: balance optimality and feasibility.
MIP search method: dynamic search.
Parallel mode: deterministic, using up to 12 threads.
Root relaxation solution time = 0.25 sec. (223.13 ticks)

        Nodes                                         Cuts/
   Node  Left     Objective  IInf  Best Integer    Best Bound    ItCnt     Gap

      0     0      351.1313   153                    351.1313     2283         
*     0+    0                        12708.0000      351.1313            97.24%
*     0+    0                         9683.0000      351.1313            96.37%
      0     0      412.6020   180     9683.0000     Cuts: 179     2910   95.74%
      0     0      416.7143   156     9683.0000     Cuts: 134     3243   95.70%
      0     0      416.8095   135     9683.0000     Cuts: 470     3319   95.70%
*     0+    0                         4140.0000      416.8095            89.93%
*     0+    0                         3033.0000      416.8095            86.26%
*     0+    0                          704.0000      416.8095            40.79%
      0     0  -1.00000e+75     0      704.0000      416.8095     3319   40.79%
      0     0      416.8750   144      704.0000      Cuts: 78     3413   40.78%
      0     0      416.9375   147      704.0000     Cuts: 194     3462   40.78%
Detecting symmetries...
      0     0      416.9500   130      704.0000      Cuts: 23     3529   40.77%
      0     0      416.9500   130      704.0000      Cuts: 12     3539   40.77%
      0     0      416.9500   129      704.0000     Covers: 2     3546   40.77%
*     0+    0                          436.0000      417.0000             4.36%
      0     0  -1.00000e+75     0      436.0000      417.0000     3546    4.36%
Detecting symmetries...

Repeating presolve.
Tried aggregator 2 times.
MIP Presolve eliminated 8568 rows and 9159 columns.
MIP Presolve added 8 rows and 0 columns.
MIP Presolve modified 852 coefficients.
Aggregator did 2 substitutions.
Reduced MIP has 1741 rows, 5273 columns, and 19371 nonzeros.
Reduced MIP has 5174 binaries, 0 generals, 0 SOSs, and 0 indicators.
Presolve time = 0.02 sec. (27.93 ticks)
Probing time = 0.01 sec. (4.09 ticks)
Cover probing fixed 0 vars, tightened 48 bounds.
Tried aggregator 1 time.
Detecting symmetries...
MIP Presolve modified 988 coefficients.
Reduced MIP has 1741 rows, 5273 columns, and 19371 nonzeros.
Reduced MIP has 5174 binaries, 0 generals, 0 SOSs, and 0 indicators.
Presolve time = 0.01 sec. (11.95 ticks)
Represolve time = 0.05 sec. (79.90 ticks)
Probing time = 0.01 sec. (3.91 ticks)
Clique table members: 12480.
MIP emphasis: balance optimality and feasibility.
MIP search method: dynamic search.
Parallel mode: deterministic, using up to 12 threads.
Root relaxation solution time = 0.06 sec. (72.45 ticks)

        Nodes                                         Cuts/
   Node  Left     Objective  IInf  Best Integer    Best Bound    ItCnt     Gap

*     0+    0                          436.0000      417.0000             4.36%
      0     0      416.9500   130      436.0000      417.0000     5023    4.36%
      0     0      417.4000   157      436.0000      Cuts: 68     5160    4.27%
      0     0      417.5000   156      436.0000     Cuts: 105     5299    4.24%
      0     0      417.7500   152      436.0000      Cuts: 46     5399    4.19%
      0     0      417.7500   159      436.0000      Cuts: 55     5460    4.19%
      0     0      417.7500   161      436.0000       Cuts: 5     5510    4.19%
Detecting symmetries...
*     0+    0                          435.0000      417.7500             3.97%
      0     0  -1.00000e+75     0      435.0000      417.7500     5510    3.97%
Detecting symmetries...
      0     2      417.7500   148      435.0000      417.7500     5510    3.97%
Elapsed time = 5.30 sec. (5245.40 ticks, tree = 0.02 MB, solutions = 7)
*     4+    2                          434.0000      417.7500             3.74%
     22    11      418.3333    84      434.0000      417.7500     7189    3.74%
*    34+    4                          433.0000      417.7500             3.52%
    159   133      419.2254   114      433.0000      417.7500    22019    3.52%
    371   299      426.3603    75      433.0000      417.8333    42840    3.50%
    590   434      427.8000    52      433.0000      417.8333    64154    3.50%
    879   674      432.0000     1      433.0000      418.0000    99329    3.46%
   1214   920      420.3775   136      433.0000      418.0000   117860    3.46%
*  1313  1003      integral     0      428.0000      418.0000   125575    2.34%
*  1475   843      integral     0      427.0000      418.0000   128259    2.11%
   1479   871      422.1881   110      427.0000      418.0000   134151    2.11%
   1859   890      421.2955   110      427.0000      418.0000   167131    2.11%
   2214  1108      419.1751    43      427.0000      418.0000   193931    2.11%
*  2576+ 1216                          424.0000      418.0000             1.42%
*  3481   992      integral     0      422.0000      418.0202   277174    0.94%
   3948   265        cutoff            422.0000      418.1172   312787    0.92%
Elapsed time = 9.32 sec. (8353.77 ticks, tree = 0.36 MB, solutions = 15)
*  4055   248      integral     0      421.0000      418.1172   313861    0.68%
*  4297    70      integral     0      420.0000      418.2500   321098    0.42%

Clique cuts applied:  20
Cover cuts applied:  24
Implied bound cuts applied:  600
Flow cuts applied:  2
Mixed integer rounding cuts applied:  154
Zero-half cuts applied:  13
Multi commodity flow cuts applied:  3
Lift and project cuts applied:  10
Gomory fractional cuts applied:  5

Root node processing (before b&c):
  Real time             =    5.30 sec. (5245.69 ticks)
Parallel b&c, 12 threads:
  Real time             =    4.25 sec. (3315.81 ticks)
  Sync time (average)   =    0.85 sec.
  Wait time (average)   =    0.00 sec.
                          ------------
Total (root+branch&cut) =    9.55 sec. (8561.50 ticks)
